\ LP format - for model browsing. Use MPS format to capture full model detail.
Minimize
  47 y_1 + 24 y_2 + 41 y_3 + 14 y_4 + 26 y_5 + 23 y_6 + 19 y_7 + 11 y_8
   + 18 y_9 + 33 y_10 + 13 y_11 + 46 y_12 + 20 y_13 + 32 y_14 + 41 y_15
   + 39 y_16 + 36 y_17 + 41 y_18 + 48 y_19 + 40 y_20 + 220 x_1 + 220 x_2
   + 220 x_3 + 220 x_4 + 220 x_5 + 220 x_6 + 220 x_7 + 220 x_8 + 220 x_9
   + 220 x_10 + 220 x_11 + 220 x_12 + 220 x_13 + 220 x_14 + 220 x_15
   + 220 x_16 + 220 x_17 + 220 x_18 + 220 x_19 + 220 x_20 + 220 x_21
   + 220 x_22 + 220 x_23 + 220 x_24 + 220 x_25 + 220 x_26 + 220 x_27
   + 220 x_28 + 220 x_29 + 220 x_30 + 220 x_31 + 220 x_32 + 220 x_33
   + 220 x_34 + 220 x_35 + 220 x_36 + 220 x_37 + 220 x_38 + 220 x_39
   + 220 x_40 + 220 x_41 + 220 x_42 + 220 x_43 + 220 x_44 + 220 x_45
   + 220 x_46 + 220 x_47 + 220 x_48 + 220 x_49 + 220 x_50 + 220 x_51
   + 220 x_52 + 220 x_53
Subject To
 constraint1_1: y_1 + x_1 + x_23 + x_24 + x_29 + x_30 + x_32 + x_33 + x_39
   + x_48 + x_49 + x_51 + x_52 >= 1
 constraint1_2: y_2 + x_2 + x_21 + x_26 + x_27 + x_28 + x_29 + x_32 + x_36
   + x_38 + x_41 + x_42 + x_44 + x_53 >= 1
 constraint1_3: y_3 + x_3 + x_22 + x_26 + x_28 + x_31 + x_39 + x_41 >= 1
 constraint1_4: y_4 + x_4 + x_21 + x_24 + x_25 + x_31 + x_32 + x_33 + x_41
   + x_43 + x_47 + x_48 + x_52 + x_53 >= 1
 constraint1_5: y_5 + x_5 + x_21 + x_24 + x_25 + x_27 + x_29 + x_32 + x_35
   + x_39 + x_42 >= 1
 constraint1_6: y_6 + x_6 + x_21 + x_25 + x_28 + x_29 + x_33 + x_35 + x_40
   + x_41 + x_44 + x_46 + x_48 >= 1
 constraint1_7: y_7 + x_7 + x_21 + x_24 + x_26 + x_27 + x_28 + x_32 + x_33
   + x_36 + x_40 + x_44 + x_46 + x_47 + x_49 + x_51 >= 1
 constraint1_8: y_8 + x_8 + x_21 + x_26 + x_27 + x_29 + x_30 + x_34 + x_35
   + x_38 + x_39 + x_43 + x_47 + x_49 >= 1
 constraint1_9: y_9 + x_9 + x_21 + x_25 + x_26 + x_31 + x_32 + x_33 + x_37
   + x_49 + x_51 >= 1
 constraint1_10: y_10 + x_10 + x_22 + x_24 + x_26 + x_30 + x_33 + x_37
   + x_42 + x_44 + x_45 + x_48 + x_49 + x_50 + x_53 >= 1
 constraint1_11: y_11 + x_11 + x_21 + x_24 + x_26 + x_27 + x_29 + x_32
   + x_34 + x_38 + x_41 + x_43 + x_44 + x_45 + x_46 + x_47 + x_48 + x_53
   >= 1
 constraint1_12: y_12 + x_12 + x_23 + x_25 + x_27 + x_31 + x_33 + x_34
   + x_40 + x_41 + x_43 + x_45 + x_46 + x_50 >= 1
 constraint1_13: y_13 + x_13 + x_21 + x_23 + x_27 + x_28 + x_29 + x_30
   + x_37 + x_46 + x_47 + x_52 >= 1
 constraint1_14: y_14 + x_14 + x_21 + x_25 + x_28 + x_34 + x_38 + x_40
   + x_42 + x_43 + x_45 + x_48 + x_49 + x_51 + x_52 + x_53 >= 1
 constraint1_15: y_15 + x_15 + x_23 + x_25 + x_27 + x_30 + x_31 + x_36
   + x_50 >= 1
 constraint1_16: y_16 + x_16 + x_22 + x_32 + x_36 + x_38 + x_39 + x_40
   + x_41 + x_46 + x_47 + x_49 + x_50 + x_52 >= 1
 constraint1_17: y_17 + x_17 + x_22 + x_29 + x_34 + x_36 + x_39 + x_42
   + x_43 + x_45 + x_47 + x_48 + x_51 + x_53 >= 1
 constraint1_18: y_18 + x_18 + x_23 + x_26 + x_28 + x_35 + x_36 + x_37
   + x_38 + x_50 >= 1
 constraint1_19: y_19 + x_19 + x_24 + x_30 + x_34 + x_35 + x_37 + x_42
   + x_43 + x_44 + x_47 + x_51 + x_52 + x_53 >= 1
 constraint1_20: y_20 + x_20 + x_22 + x_31 + x_35 + x_37 + x_38 + x_40
   + x_44 + x_45 + x_46 >= 1
 constraint2: 47 y_1 + 24 y_2 + 41 y_3 + 14 y_4 + 26 y_5 + 23 y_6 + 19 y_7
   + 11 y_8 + 18 y_9 + 33 y_10 + 13 y_11 + 46 y_12 + 20 y_13 + 32 y_14
   + 41 y_15 + 39 y_16 + 36 y_17 + 41 y_18 + 48 y_19 + 40 y_20 <= 200
 constraint3: x_1 + x_2 + x_3 + x_4 + x_5 + x_6 + x_7 + x_8 + x_9 + x_10
   + x_11 + x_12 + x_13 + x_14 + x_15 + x_16 + x_17 + x_18 + x_19 + x_20
   + x_21 + x_22 + x_23 + x_24 + x_25 + x_26 + x_27 + x_28 + x_29 + x_30
   + x_31 + x_32 + x_33 + x_34 + x_35 + x_36 + x_37 + x_38 + x_39 + x_40
   + x_41 + x_42 + x_43 + x_44 + x_45 + x_46 + x_47 + x_48 + x_49 + x_50
   + x_51 + x_52 + x_53 >= 3
 constraint4: x_1 + x_2 + x_3 + x_4 + x_5 + x_6 + x_7 + x_8 + x_9 + x_10
   + x_11 + x_12 + x_13 + x_14 + x_15 + x_16 + x_17 + x_18 + x_19 + x_20
   + x_21 + x_22 + x_23 + x_24 + x_25 + x_26 + x_27 + x_28 + x_29 + x_30
   + x_31 + x_32 + x_33 + x_34 + x_35 + x_36 + x_37 + x_38 + x_39 + x_40
   + x_41 + x_42 + x_43 + x_44 + x_45 + x_46 + x_47 + x_48 + x_49 + x_50
   + x_51 + x_52 + x_53 <= 2.147483647e+09
Bounds
 y_1 <= 1
 y_2 <= 1
 y_3 <= 1
 y_4 <= 1
 y_5 <= 1
 y_6 <= 1
 y_7 <= 1
 y_8 <= 1
 y_9 <= 1
 y_10 <= 1
 y_11 <= 1
 y_12 <= 1
 y_13 <= 1
 y_14 <= 1
 y_15 <= 1
 y_16 <= 1
 y_17 <= 1
 y_18 <= 1
 y_19 <= 1
 y_20 <= 1
 x_1 <= 1
 x_2 <= 1
 x_3 <= 1
 x_4 <= 1
 x_5 <= 1
 x_6 <= 1
 x_7 <= 1
 x_8 <= 1
 x_9 <= 1
 x_10 <= 1
 x_11 <= 1
 x_12 = 0
 x_13 <= 1
 x_14 <= 1
 x_15 = 0
 x_16 <= 1
 x_17 <= 1
 x_18 <= 1
 x_19 <= 1
 x_20 <= 1
 x_21 <= 1
 x_22 <= 1
 x_23 <= 1
 x_24 <= 1
 x_25 <= 1
 x_26 <= 1
 x_27 <= 1
 x_28 <= 1
 x_29 <= 1
 x_30 = 0
 x_31 <= 1
 x_32 <= 1
 x_33 = 0
 x_34 = 0
 x_35 <= 1
 x_36 = 0
 x_37 <= 1
 x_38 <= 1
 x_39 <= 1
 x_40 = 0
 x_41 = 0
 x_42 <= 1
 x_43 = 0
 x_44 <= 1
 x_45 = 0
 x_46 = 0
End
